objective value:                         -211283.3195
t_x2073                                             1 	(obj:29.125)
t_x2074                                             1 	(obj:29.125)
t_x2075                                             1 	(obj:29.125)
t_x2076                                             1 	(obj:29.125)
t_x2077                                             1 	(obj:29.125)
t_x2078                                             1 	(obj:29.125)
t_x4291                                             1 	(obj:-996.5)
t_x4292                                             1 	(obj:-996.5)
t_x4985                                             1 	(obj:79.125)
t_x4986                                             1 	(obj:79.125)
t_x4987                                             1 	(obj:79.125)
t_x4988                                             1 	(obj:79.125)
t_x4989                                             1 	(obj:79.125)
t_x4990                                             1 	(obj:79.125)
t_x5767                                             1 	(obj:259.412)
t_x5768                                             1 	(obj:259.412)
t_x7897                                             1 	(obj:79.125)
t_x7898                                             1 	(obj:79.125)
t_x7899                                             1 	(obj:79.125)
t_x7900                                             1 	(obj:79.125)
t_x7905                                             1 	(obj:83.2125)
t_x7906                                             1 	(obj:83.2125)
t_x7987                                             1 	(obj:88.375)
t_x7988                                             1 	(obj:88.375)
t_x8651                                             1 	(obj:129.537)
t_x8652                                             1 	(obj:129.537)
t_x10809                                            1 	(obj:29.125)
t_x10810                                            1 	(obj:29.125)
t_x10811                                            1 	(obj:29.125)
t_x10812                                            1 	(obj:29.125)
t_x10817                                            1 	(obj:33.2125)
t_x10818                                            1 	(obj:33.2125)
t_x10899                                            1 	(obj:38.375)
t_x10900                                            1 	(obj:38.375)
t_x11563                                            1 	(obj:79.537)
t_x11564                                            1 	(obj:79.537)
t_x11739                                            1 	(obj:-1179.6625)
t_x11740                                            1 	(obj:-1179.6625)
t_x12461                                            1 	(obj:-1027.9375)
t_x12462                                            1 	(obj:-1027.9375)
t_x12463                                            1 	(obj:-1027.9375)
t_x12464                                            1 	(obj:-1027.9375)
t_x12466                                            1 	(obj:-1027.9375)
t_x12479                                            1 	(obj:-1006.1875)
t_x14651                                            1 	(obj:-1229.6625)
t_x14652                                            1 	(obj:-1229.6625)
t_x15373                                            1 	(obj:-1077.9375)
t_x15374                                            1 	(obj:-1077.9375)
t_x15375                                            1 	(obj:-1077.9375)
t_x15376                                            1 	(obj:-1077.9375)
t_x15378                                            1 	(obj:-1077.9375)
t_x15391                                            1 	(obj:-1056.1875)
t_x17589                                            1 	(obj:-1579.5875)
t_x17601                                            1 	(obj:-2137.6125)
t_x17602                                            1 	(obj:-2137.6125)
t_x17604                                            1 	(obj:-2137.6125)
t_x17795                                            1 	(obj:-1715.1625)
t_x17810                                            1 	(obj:-1682.65)
t_x18585                                            1 	(obj:-971.875)
t_x18586                                            1 	(obj:-971.875)
t_x19610                                            1 	(obj:67.51875)
t_x19623                                            1 	(obj:77.7)
t_x20501                                            1 	(obj:-1629.5875)
t_x20513                                            1 	(obj:-2187.6125)
t_x20514                                            1 	(obj:-2187.6125)
t_x20516                                            1 	(obj:-2187.6125)
t_x20707                                            1 	(obj:-1765.1625)
t_x20722                                            1 	(obj:-1732.65)
t_x21497                                            1 	(obj:-1021.875)
t_x21498                                            1 	(obj:-1021.875)
t_x22522                                            1 	(obj:17.51875)
t_x22535                                            1 	(obj:27.7)
t_x23347                                            1 	(obj:-1310.03125)
t_x23348                                            1 	(obj:-1310.03125)
t_x23437                                            1 	(obj:-2298.05)
t_x23438                                            1 	(obj:-2298.05)
t_x23441                                            1 	(obj:-2298.05)
t_x23442                                            1 	(obj:-2298.05)
t_x23443                                            1 	(obj:-2298.05)
t_x23444                                            1 	(obj:-2298.05)
t_x26259                                            1 	(obj:-1360.03125)
t_x26260                                            1 	(obj:-1360.03125)
t_x26349                                            1 	(obj:-2348.05)
t_x26350                                            1 	(obj:-2348.05)
t_x26353                                            1 	(obj:-2348.05)
t_x26354                                            1 	(obj:-2348.05)
t_x26355                                            1 	(obj:-2348.05)
t_x26356                                            1 	(obj:-2348.05)
t_x29282                                            1 	(obj:-3058.5875)
t_x29283                                            1 	(obj:-2741.72875)
t_x29284                                            1 	(obj:-2741.72875)
t_x29841                                            1 	(obj:17.9875)
t_x29916                                            1 	(obj:-209.0625)
t_x29929                                            1 	(obj:-202.546875)
t_x31486                                            1 	(obj:124.396)
t_x31499                                            1 	(obj:124.68)
t_x32194                                            1 	(obj:-3108.5875)
t_x32195                                            1 	(obj:-2791.72875)
t_x32196                                            1 	(obj:-2791.72875)
t_x32753                                            1 	(obj:-32.0125)
t_x32828                                            1 	(obj:-259.0625)
t_x32841                                            1 	(obj:-252.546875)
t_x34398                                            1 	(obj:74.396)
t_x34411                                            1 	(obj:74.68)
t_x35077                                            1 	(obj:-2137.6125)
t_x35078                                            1 	(obj:-2137.6125)
t_x35295                                            1 	(obj:-1323.95)
t_x35310                                            1 	(obj:-1438.4875)
t_x36070                                            1 	(obj:-894.4375)
t_x36083                                            1 	(obj:-858.4375)
t_x36096                                            1 	(obj:-796.9375)
t_x36109                                            1 	(obj:-688.1875)
t_x36130                                            1 	(obj:-510.325)
t_x36143                                            1 	(obj:-546.94375)
t_x37989                                            1 	(obj:-2187.6125)
t_x37990                                            1 	(obj:-2187.6125)
t_x38207                                            1 	(obj:-1373.95)
t_x38222                                            1 	(obj:-1488.4875)
t_x38982                                            1 	(obj:-944.4375)
t_x38995                                            1 	(obj:-908.4375)
t_x39008                                            1 	(obj:-846.9375)
t_x39021                                            1 	(obj:-738.1875)
t_x39042                                            1 	(obj:-560.325)
t_x39055                                            1 	(obj:-596.94375)
t_x40860                                            1 	(obj:-1179.6625)
t_x41083                                            1 	(obj:-670.5125)
t_x41582                                            1 	(obj:-1027.9375)
t_x41586                                            1 	(obj:-1027.9375)
t_x41709                                            1 	(obj:-979)
t_x41710                                            1 	(obj:-979)
t_x41721                                            1 	(obj:-1012)
t_x41725                                            1 	(obj:-1012)
t_x42471                                            1 	(obj:46.425)
t_x42486                                            1 	(obj:35.11875)
t_x43772                                            1 	(obj:-1229.6625)
t_x43995                                            1 	(obj:-720.5125)
t_x44494                                            1 	(obj:-1077.9375)
t_x44498                                            1 	(obj:-1077.9375)
t_x44621                                            1 	(obj:-1029)
t_x44622                                            1 	(obj:-1029)
t_x44633                                            1 	(obj:-1062)
t_x44637                                            1 	(obj:-1062)
t_x45383                                            1 	(obj:-3.575)
t_x45398                                            1 	(obj:-14.88125)
t_x46595                                            1 	(obj:-2185.075)
t_x46610                                            1 	(obj:-4255.25)
t_x46627                                            1 	(obj:-4646.25)
t_x46628                                            1 	(obj:-4646.25)
t_x46747                                            1 	(obj:-6117.175)
t_x46748                                            1 	(obj:-6117.175)
t_x46751                                            1 	(obj:-6117.175)
t_x46752                                            1 	(obj:-6117.175)
t_x50096                                            1 	(obj:-1199.6375)
t_x50109                                            1 	(obj:-1445.925)
t_x50113                                            1 	(obj:-1445.925)
t_x50114                                            1 	(obj:-1445.925)
t_x50433                                            1 	(obj:-809.875)
t_x50434                                            1 	(obj:-809.875)
t_x50774                                            1 	(obj:-500.70625)
t_x50787                                            1 	(obj:-492.775)
t_x50794                                            1 	(obj:-986.875)
t_x50807                                            1 	(obj:-940.375)
t_x53008                                            1 	(obj:-1249.6375)
t_x53021                                            1 	(obj:-1495.925)
t_x53025                                            1 	(obj:-1495.925)
t_x53026                                            1 	(obj:-1495.925)
t_x53345                                            1 	(obj:-859.875)
t_x53346                                            1 	(obj:-859.875)
t_x53686                                            1 	(obj:-550.70625)
t_x53699                                            1 	(obj:-542.775)
t_x53706                                            1 	(obj:-1036.875)
t_x53719                                            1 	(obj:-990.375)
t_x55415                                            1 	(obj:-2359.325)
t_x55416                                            1 	(obj:-2359.325)
t_x55417                                            1 	(obj:-2359.325)
t_x55418                                            1 	(obj:-2359.325)
t_x55623                                            1 	(obj:-1242)
t_x55624                                            1 	(obj:-1242)
t_x56147                                            1 	(obj:-2055.875)
t_x56288                                            1 	(obj:-2024)
t_x56331                                            1 	(obj:-393.575)
t_x56346                                            1 	(obj:-445.2125)
t_x60184                                            1 	(obj:70.125)
t_x60197                                            1 	(obj:75.59375)
t_x60941                                            1 	(obj:155.55)
t_x60956                                            1 	(obj:156.584)
